(set-info :source |printed by MathSAT|)
(declare-fun |.y{8}| () Int)
(declare-fun |.y{10}| () Int)
(declare-fun |.y{9}| () Int)
(declare-fun |.x{115}| () (Array Int Int))
(declare-fun |.y{12}| () (Array Int Int))
(declare-fun |.x{118}| () Int)
(declare-fun |.y{13}| () Int)
(declare-fun |.x{114}| () Int)
(declare-fun |.y{14}| () Int)
(declare-fun |.x{113}| () Int)
(declare-fun |.y{15}| () Int)
(declare-fun |.x{108}| () Int)
(declare-fun |.y{16}| () Int)
(declare-fun |.loc{3}| () Bool)
(declare-fun |.loc{5}| () Bool)
(declare-fun |.loc{4}| () Bool)
(declare-fun |.loc{6}| () Bool)
(declare-fun |.x{49}| () Bool)
(declare-fun |.x{48}| () Bool)
(declare-fun |.x{50}| () Int)
(declare-fun |.x{42}| () Int)
(declare-fun |.x{43}| () Int)
(declare-fun |.x{46}| () Bool)
(declare-fun |.x{44}| () Bool)
(declare-fun |.x{41}| () Int)
(declare-fun |.x{40}| () Int)
(declare-fun |.x{36}| () Bool)
(declare-fun |.x{116}| () Int)
(declare-fun |.x{47}| () Int)
(define-fun .def_22 () Bool (! |.loc{3}| :next |.loc{5}|))
(define-fun .def_155 () Bool (not .def_22))
(define-fun .def_24 () Bool (! |.loc{4}| :next |.loc{6}|))
(define-fun .def_133 () Bool (not .def_24))
(define-fun .def_223 () Bool (! (and .def_133 .def_155) :init true))
(define-fun .def_18 () Int (! |.x{113}| :next |.y{15}|))
(define-fun .def_20 () Int (! |.x{108}| :next |.y{16}|))
(define-fun .def_206 () Int (* 16777216 .def_20))
(define-fun .def_207 () Real (* (/ 1 16777216) (to_real .def_206)))
(define-fun .def_208 () Int (to_int .def_207))
(define-fun .def_209 () Bool (<= .def_208 .def_18))
(define-fun .def_210 () Bool (not .def_209))
(define-fun .def_12 () (Array Int Int) (! |.x{115}| :next |.y{12}|))
(define-fun .def_164 () Int (select .def_12 |.x{116}|))
(define-fun .def_14 () Int (! |.x{118}| :next |.y{13}|))
(define-fun .def_165 () Bool (<= .def_14 .def_164))
(define-fun .def_204 () Bool (not .def_165))
(define-fun .def_211 () Bool (and .def_204 .def_210))
(define-fun .def_172 () Bool (<= |.x{116}| 0))
(define-fun .def_173 () Bool (not .def_172))
(define-fun .def_16 () Int (! |.x{114}| :next |.y{14}|))
(define-fun .def_90 () Bool (<= .def_16 0))
(define-fun .def_174 () Bool (or .def_90 .def_173))
(define-fun .def_212 () Bool (and .def_174 .def_211))
(define-fun .def_96 () Bool (not .def_90))
(define-fun .def_213 () Bool (and .def_96 .def_212))
(define-fun .def_180 () Int (* (- 1) |.x{116}|))
(define-fun .def_183 () Int (+ .def_18 .def_180))
(define-fun .def_184 () Int (+ .def_16 .def_183))
(define-fun .def_185 () Bool (= .def_184 0))
(define-fun .def_214 () Bool (and .def_185 .def_213))
(define-fun .def_215 () Bool (and .def_24 .def_214))
(define-fun .def_216 () Bool (and .def_155 .def_215))
(define-fun .def_217 () Bool (and |.loc{5}| .def_216))
(define-fun .def_199 () Bool (= |.y{15}| 0))
(define-fun .def_146 () Bool (= .def_16 |.y{14}|))
(define-fun .def_26 () Bool (= .def_20 |.y{16}|))
(define-fun .def_195 () Bool (and .def_26 .def_146))
(define-fun .def_177 () Bool (not |.loc{5}|))
(define-fun .def_196 () Bool (and .def_177 .def_195))
(define-fun .def_197 () Bool (and .def_22 .def_196))
(define-fun .def_198 () Bool (and .def_133 .def_197))
(define-fun .def_200 () Bool (and .def_198 .def_199))
(define-fun .def_8 () Int (! |.y{8}| :next |.y{10}|))
(define-fun .def_63 () Int (* (- 16777216) .def_20))
(define-fun .def_64 () Int (* (- 1) .def_63))
(define-fun .def_66 () Real (* (/ 1 16777216) (to_real .def_64)))
(define-fun .def_67 () Int (to_int .def_66))
(define-fun .def_68 () Bool (<= .def_67 .def_8))
(define-fun .def_201 () Bool (and .def_68 .def_200))
(define-fun .def_191 () Bool (= .def_12 |.y{12}|))
(define-fun .def_202 () Bool (and .def_191 .def_201))
(define-fun .def_193 () Bool (= .def_14 |.y{13}|))
(define-fun .def_203 () Bool (and .def_193 .def_202))
(define-fun .def_218 () Bool (or .def_203 .def_217))
(define-fun .def_188 () Bool (<= .def_67 .def_18))
(define-fun .def_189 () Bool (not .def_188))
(define-fun .def_168 () Int (* (- 1) |.y{15}|))
(define-fun .def_169 () Int (+ .def_18 .def_168))
(define-fun .def_170 () Bool (= .def_169 (- 1)))
(define-fun .def_166 () Bool (and .def_146 .def_165))
(define-fun .def_167 () Bool (and .def_26 .def_166))
(define-fun .def_171 () Bool (and .def_167 .def_170))
(define-fun .def_175 () Bool (and .def_171 .def_174))
(define-fun .def_176 () Bool (and .def_96 .def_175))
(define-fun .def_178 () Bool (and .def_176 .def_177))
(define-fun .def_179 () Bool (and .def_24 .def_178))
(define-fun .def_186 () Bool (and .def_179 .def_185))
(define-fun .def_187 () Bool (and .def_155 .def_186))
(define-fun .def_190 () Bool (and .def_187 .def_189))
(define-fun .def_192 () Bool (and .def_190 .def_191))
(define-fun .def_194 () Bool (and .def_192 .def_193))
(define-fun .def_219 () Bool (or .def_194 .def_218))
(define-fun .def_220 () Bool (and |.loc{6}| .def_219))
(define-fun .def_162 () Bool (= |.y{13}| 0))
(define-fun .def_160 () Bool (= |.y{10}| 0))
(define-fun .def_151 () Bool (<= |.y{16}| 0))
(define-fun .def_152 () Bool (not .def_151))
(define-fun .def_149 () Bool (<= |.y{14}| 0))
(define-fun .def_150 () Bool (not .def_149))
(define-fun .def_153 () Bool (and .def_150 .def_152))
(define-fun .def_148 () Bool (= .def_8 |.y{15}|))
(define-fun .def_154 () Bool (and .def_148 .def_153))
(define-fun .def_156 () Bool (and .def_154 .def_155))
(define-fun .def_157 () Bool (and .def_133 .def_156))
(define-fun .def_128 () Bool (not |.loc{6}|))
(define-fun .def_158 () Bool (and .def_128 .def_157))
(define-fun .def_159 () Bool (and |.loc{5}| .def_158))
(define-fun .def_161 () Bool (and .def_159 .def_160))
(define-fun .def_163 () Bool (and .def_161 .def_162))
(define-fun .def_221 () Bool (or .def_163 .def_220))
(define-fun .def_140 () Bool (and |.x{48}| |.x{46}|))
(define-fun .def_143 () Bool (not .def_140))
(define-fun .def_144 () Bool (or |.x{44}| .def_143))
(define-fun .def_48 () Bool (not |.x{46}|))
(define-fun .def_141 () Bool (or .def_48 .def_140))
(define-fun .def_138 () Bool (= .def_18 |.y{15}|))
(define-fun .def_135 () Bool (= |.y{13}| |.x{47}|))
(define-fun .def_136 () Bool (or .def_48 .def_135))
(define-fun .def_130 () Bool (= .def_14 |.x{50}|))
(define-fun .def_39 () Bool (and |.x{49}| |.x{48}|))
(define-fun .def_40 () Bool (not .def_39))
(define-fun .def_131 () Bool (or .def_40 .def_130))
(define-fun .def_126 () Bool (or .def_48 .def_96))
(define-fun .def_122 () Bool (= |.x{43}| |.x{47}|))
(define-fun .def_123 () Bool (or .def_48 .def_122))
(define-fun .def_116 () Bool (<= |.x{42}| 0))
(define-fun .def_117 () Bool (not .def_116))
(define-fun .def_118 () Bool (or .def_90 .def_117))
(define-fun .def_119 () Bool (or .def_48 .def_118))
(define-fun .def_114 () Bool (or .def_39 |.x{46}|))
(define-fun .def_71 () Bool (and |.x{48}| |.x{36}|))
(define-fun .def_59 () Bool (not |.x{48}|))
(define-fun .def_112 () Bool (or .def_59 .def_71))
(define-fun .def_106 () Int (* (- 1) |.x{42}|))
(define-fun .def_107 () Int (+ .def_16 .def_106))
(define-fun .def_108 () Int (+ .def_8 .def_107))
(define-fun .def_109 () Bool (= .def_108 0))
(define-fun .def_110 () Bool (or .def_48 .def_109))
(define-fun .def_100 () Bool (<= .def_14 |.x{41}|))
(define-fun .def_101 () Bool (not .def_100))
(define-fun .def_102 () Bool (= |.x{44}| .def_101))
(define-fun .def_103 () Bool (or .def_59 .def_102))
(define-fun .def_97 () Bool (or .def_59 .def_96))
(define-fun .def_91 () Bool (<= |.x{40}| 0))
(define-fun .def_92 () Bool (not .def_91))
(define-fun .def_93 () Bool (or .def_90 .def_92))
(define-fun .def_94 () Bool (or .def_59 .def_93))
(define-fun .def_84 () Int (* (- 1) |.x{40}|))
(define-fun .def_85 () Int (+ .def_16 .def_84))
(define-fun .def_86 () Int (+ .def_8 .def_85))
(define-fun .def_87 () Bool (= .def_86 0))
(define-fun .def_88 () Bool (or .def_59 .def_87))
(define-fun .def_76 () Bool (= .def_18 |.x{116}|))
(define-fun .def_77 () Bool (or .def_59 .def_76))
(define-fun .def_72 () Bool (not .def_71))
(define-fun .def_69 () Bool (not .def_68))
(define-fun .def_73 () Bool (or .def_69 .def_72))
(define-fun .def_57 () (Array Int Int) (store .def_12 |.x{40}| |.x{41}|))
(define-fun .def_58 () Bool (= |.y{12}| .def_57))
(define-fun .def_60 () Bool (or .def_58 .def_59))
(define-fun .def_52 () Bool (not |.x{44}|))
(define-fun .def_53 () Bool (or .def_40 .def_52))
(define-fun .def_44 () Int (select |.y{12}| |.x{42}|))
(define-fun .def_46 () Bool (= .def_44 |.x{43}|))
(define-fun .def_49 () Bool (or .def_46 .def_48))
(define-fun .def_38 () Bool (= |.y{13}| |.x{50}|))
(define-fun .def_41 () Bool (or .def_38 .def_40))
(define-fun .def_33 () Int (* (- 1) |.y{10}|))
(define-fun .def_34 () Int (+ .def_8 .def_33))
(define-fun .def_35 () Bool (= .def_34 (- 1)))
(define-fun .def_28 () Bool (not |.x{49}|))
(define-fun .def_30 () Bool (or .def_28 |.x{48}|))
(define-fun .def_31 () Bool (and .def_26 .def_30))
(define-fun .def_36 () Bool (and .def_31 .def_35))
(define-fun .def_42 () Bool (and .def_36 .def_41))
(define-fun .def_50 () Bool (and .def_42 .def_49))
(define-fun .def_54 () Bool (and .def_50 .def_53))
(define-fun .def_61 () Bool (and .def_54 .def_60))
(define-fun .def_74 () Bool (and .def_61 .def_73))
(define-fun .def_78 () Bool (and .def_74 .def_77))
(define-fun .def_89 () Bool (and .def_78 .def_88))
(define-fun .def_95 () Bool (and .def_89 .def_94))
(define-fun .def_98 () Bool (and .def_95 .def_97))
(define-fun .def_99 () Bool (and .def_22 .def_98))
(define-fun .def_104 () Bool (and .def_99 .def_103))
(define-fun .def_111 () Bool (and .def_104 .def_110))
(define-fun .def_113 () Bool (and .def_111 .def_112))
(define-fun .def_115 () Bool (and .def_113 .def_114))
(define-fun .def_120 () Bool (and .def_115 .def_119))
(define-fun .def_124 () Bool (and .def_120 .def_123))
(define-fun .def_125 () Bool (and |.loc{5}| .def_124))
(define-fun .def_127 () Bool (and .def_125 .def_126))
(define-fun .def_129 () Bool (and .def_127 .def_128))
(define-fun .def_132 () Bool (and .def_129 .def_131))
(define-fun .def_134 () Bool (and .def_132 .def_133))
(define-fun .def_137 () Bool (and .def_134 .def_136))
(define-fun .def_139 () Bool (and .def_137 .def_138))
(define-fun .def_142 () Bool (and .def_139 .def_141))
(define-fun .def_145 () Bool (and .def_142 .def_144))
(define-fun .def_147 () Bool (and .def_145 .def_146))
(define-fun .def_222 () Bool (! (or .def_147 .def_221) :trans true))
(define-fun .def_10 () Int (! |.y{9}| :next |.y{11}|))
(define-fun .def_224 () Bool (and .def_22 .def_24))
(define-fun .def_225 () Bool (! (not .def_224) :invar-property 0))
(assert true)
